Set parameter TokenServer to value "hpc-licenses.hpcc.usc.edu"
Set parameter TimeLimit to value 3600
Gurobi Optimizer version 9.5.1 build v9.5.1rc2 (linux64)
Thread count: 20 physical cores, 20 logical processors, using up to 20 threads
Optimize a model with 6007 rows, 4529 columns and 24534 nonzeros
Model fingerprint: 0x0a7cb1a2
Variable types: 4506 continuous, 23 integer (23 binary)
Coefficient statistics:
  Matrix range     [1e+00, 1e+00]
  Objective range  [3e-03, 1e+00]
  Bounds range     [1e+00, 1e+00]
  RHS range        [1e+00, 3e+01]
Presolve removed 1520 rows and 1515 columns
Presolve time: 0.04s
Presolved: 4487 rows, 3014 columns, 21975 nonzeros
Variable types: 2994 continuous, 20 integer (20 binary)
Found heuristic solution: objective 220.2573647

Root relaxation: objective 2.239028e+02, 2164 iterations, 0.06 seconds (0.12 work units)

    Nodes    |    Current Node    |     Objective Bounds      |     Work
 Expl Unexpl |  Obj  Depth IntInf | Incumbent    BestBd   Gap | It/Node Time

     0     0  223.90276    0    3  220.25736  223.90276  1.66%     -    0s
     0     0  223.79091    0    4  220.25736  223.79091  1.60%     -    0s
     0     0  223.66553    0    5  220.25736  223.66553  1.55%     -    0s
     0     0  223.60358    0    3  220.25736  223.60358  1.52%     -    0s
     0     0  223.53774    0    3  220.25736  223.53774  1.49%     -    0s
H    0     0                     223.2129887  223.53774  0.15%     -    0s
     0     0  223.51626    0    3  223.21299  223.51626  0.14%     -    0s
     0     0  223.51626    0    3  223.21299  223.51626  0.14%     -    1s
     0     0  223.21299    0    4  223.21299  223.21299  0.00%     -    1s

Cutting planes:
  Gomory: 5
  Implied bound: 44
  MIR: 514
  Flow cover: 4
  RLT: 19
  Relax-and-lift: 7

Explored 1 nodes (4543 simplex iterations) in 1.51 seconds (0.87 work units)
Thread count was 20 (of 20 available processors)

Solution count 2: 223.213 220.257 

Optimal solution found (tolerance 1.00e-04)
Best objective 2.232129886732e+02, best bound 2.232129886732e+02, gap 0.0000%



#########node  1
V1.9
#########node  2
0.5000000000000001,0.4999999999999999
#########node  3
1.0,0.0


Total Solving Time 1.829200267791748
obj value 223.2129886732324
Policy Regret train (Sum) 18.45955782590308
Best Treatment Found train (%) 39.800000000000004
treatment classification acc train (%) 49.2
Policy Regret test (Sum) 274.1591725630516
Best Treatment Found test (%) 42.61
treatment classification acc test (%) 50.07
